============================[ Problem Statistics ]=============================|                                                                             ||  Number of variables:          4242                                         ||  Number of clauses:            9914                                         ||  Parse time:                   0.31 s                                       ||                                                                             |============================[ Search Statistics ]==============================| Conflicts |          ORIGINAL         |          LEARNT          | Progress ||           |    Vars  Clauses Literals |    Limit  Clauses Lit/Cl |          |===============================================================================|       100 |    1591     6119   482730 |     2243      100     53 | 62.501 % |===============================================================================restarts              : 2conflicts             : 181            (379 /sec)decisions             : 352            (0.00 % random) (736 /sec)propagations          : 10026          (20975 /sec)conflict literals     : 12414          (95.24 % deleted)CPU time              : 0.478 sSATISFIABLE